100
128
33
13
24
14
26
23
44
53
3
45
52
3
38
56
36
1
49
16
54
4
46
48
3
50
60
8
54
19
48
52
56
2
14
56
25
59
14
4
1
45
39
59
34
38
32
58
44
51
50
32
6
38
32
10
51
62
63
39
33
39
2
2
63
10
7
38
49
42
10
34
35
51
5
63
1
57
49
11
5
43
16
1
37
8
36
3
50
4
49
3
4
39
10
32
36
10
31
43
7
12